c This is an instance of the exact track of PACE 2020 Challenge, see https://pacechallenge.org/2020/ 
c TYPE: social 
c ORIGIN: networkrepository.com 
c DESCRIPTION: an animal social network. Groups were defined as individuals detected on the same nest-box during the same day, and co-memberships represented individuals that overlapped in nest-box exploration patterns during the same day. Networks were calculated from these group-by-individual matrices using the halfweight index. Each network represents social data collected for consecutive 6-day time window. From: Firth, Josh A., and Ben C. Sheldon. "Experimental manipulation of avian social structure reveals segregation is carried over across contexts." Proceedings of the Royal Society of London B: Biological Sciences 282.1802 (2015): 20142350. 
p tdp 145 2512
1 2
1 3
1 4
1 5
1 6
1 7
1 8
1 9
1 10
1 11
1 12
1 13
1 14
1 15
1 16
1 17
1 18
1 19
1 20
1 21
1 22
1 23
1 24
1 25
1 26
1 27
1 28
1 29
1 30
1 31
1 32
1 33
1 34
1 35
1 36
1 37
1 38
1 39
1 40
1 41
1 42
2 43
2 109
2 14
2 21
2 29
2 15
2 39
2 71
2 41
2 137
2 23
2 3
2 47
2 5
2 67
2 37
2 8
2 110
2 10
2 11
2 12
2 13
2 20
2 24
2 9
2 111
2 25
2 31
2 4
2 27
2 112
2 113
2 30
2 32
2 33
2 6
2 36
2 114
2 7
2 28
2 42
3 43
3 100
3 108
3 14
3 60
3 69
3 21
3 22
3 29
3 65
3 15
3 70
3 39
3 71
3 40
3 44
3 122
3 45
3 46
3 47
3 48
3 5
3 6
3 123
3 49
3 50
3 51
3 8
3 52
3 53
3 11
3 55
3 56
3 126
3 57
3 121
3 13
3 59
3 17
3 19
3 63
3 23
3 24
3 9
3 111
3 26
3 62
3 27
3 28
3 64
3 30
3 32
3 66
3 67
3 68
3 35
3 36
3 61
4 109
4 21
4 29
4 15
4 39
4 41
4 5
4 6
4 37
4 8
4 110
4 10
4 11
4 12
4 13
4 20
4 24
4 31
4 112
4 114
4 32
4 33
4 42
5 43
5 14
5 60
5 69
5 21
5 29
5 65
5 15
5 70
5 39
5 71
5 40
5 41
5 44
5 46
5 122
5 45
5 48
5 32
5 6
5 123
5 49
5 37
5 50
5 51
5 8
5 52
5 10
5 11
5 12
5 55
5 56
5 53
5 57
5 54
5 7
5 26
5 13
5 16
5 59
5 17
5 18
5 19
5 63
5 23
5 24
5 9
5 126
5 25
5 31
5 47
5 62
5 27
5 64
5 30
5 42
5 33
5 66
5 67
5 68
5 20
5 36
5 61
5 38
6 43
6 109
6 14
6 60
6 69
6 21
6 22
6 29
6 65
6 15
6 70
6 39
6 71
6 40
6 41
6 44
6 46
6 137
6 122
6 48
6 67
6 123
6 49
6 37
6 50
6 51
6 8
6 110
6 10
6 11
6 12
6 55
6 63
6 53
6 57
6 7
6 26
6 35
6 13
6 17
6 18
6 19
6 61
6 23
6 24
6 9
6 111
6 25
6 31
6 47
6 62
6 27
6 112
6 113
6 64
6 30
6 32
6 33
6 34
6 68
6 20
6 121
6 36
6 114
6 38
6 28
6 42
7 109
7 14
7 21
7 29
7 39
7 40
7 41
7 37
7 24
7 26
7 27
7 28
7 36
7 30
7 42
7 35
7 23
7 47
7 32
7 111
7 10
7 11
7 12
7 9
7 118
7 33
7 123
7 137
7 8
7 13
7 19
7 20
7 25
7 112
7 31
7 113
7 110
8 43
8 109
8 14
8 60
8 69
8 21
8 29
8 65
8 15
8 70
8 39
8 71
8 40
8 41
8 44
8 46
8 49
8 37
8 51
8 24
8 26
8 62
8 27
8 36
8 64
8 30
8 38
8 42
8 122
8 23
8 47
8 48
8 32
8 67
8 111
8 52
8 10
8 11
8 12
8 63
8 124
8 9
8 45
8 33
8 66
8 123
8 50
8 19
8 53
8 57
8 13
8 16
8 59
8 17
8 31
8 56
8 18
8 112
8 113
8 20
8 110
8 61
9 43
9 14
9 60
9 69
9 21
9 29
9 65
9 15
9 70
9 39
9 71
9 40
9 41
9 44
9 46
9 49
9 37
9 51
9 125
9 55
9 24
9 26
9 62
9 27
9 28
9 36
9 64
9 30
9 38
9 42
9 139
9 68
9 122
9 23
9 47
9 48
9 32
9 67
9 10
9 11
9 12
9 63
9 123
9 118
9 50
9 19
9 53
9 57
9 13
9 58
9 127
9 59
9 17
9 18
9 31
9 56
9 25
9 33
9 66
9 20
9 110
9 61
9 16
10 109
10 14
10 21
10 29
10 15
10 39
10 41
10 46
10 37
10 24
10 26
10 27
10 28
10 36
10 30
10 42
10 114
10 23
10 47
10 32
10 110
10 11
10 12
10 13
10 18
10 31
10 20
10 25
10 112
10 33
11 109
11 14
11 60
11 69
11 21
11 22
11 29
11 65
11 15
11 70
11 39
11 71
11 40
11 41
11 44
11 46
11 49
11 37
11 51
11 24
11 26
11 62
11 27
11 28
11 36
11 64
11 30
11 42
11 114
11 23
11 47
11 48
11 32
11 67
11 111
11 52
11 113
11 45
11 118
11 50
11 12
11 63
11 19
11 57
11 13
11 59
11 17
11 31
11 56
11 25
11 18
11 34
11 112
11 33
11 66
11 20
11 110
12 109
12 14
12 21
12 22
12 29
12 15
12 39
12 40
12 41
12 46
12 37
12 24
12 26
12 27
12 36
12 30
12 42
12 114
12 23
12 32
12 110
12 19
12 13
12 17
12 31
12 20
12 25
12 112
12 33
13 106
13 109
13 14
13 60
13 69
13 21
13 22
13 29
13 65
13 15
13 70
13 39
13 71
13 40
13 41
13 44
13 46
13 49
13 37
13 51
13 24
13 26
13 62
13 27
13 28
13 36
13 64
13 30
13 38
13 42
13 35
13 23
13 47
13 48
13 32
13 67
13 111
13 52
13 63
13 45
13 118
13 33
13 66
13 123
13 50
13 110
13 53
13 54
13 56
13 113
13 19
13 57
13 20
13 59
13 17
13 31
13 25
13 18
13 112
13 107
14 43
14 44
14 122
14 45
14 46
14 47
14 48
14 67
14 123
14 49
14 37
14 50
14 51
14 124
14 52
14 55
14 56
14 53
14 54
14 125
14 57
14 58
14 16
14 59
14 17
14 18
14 19
14 60
14 20
14 61
14 21
14 22
14 23
14 24
14 126
14 25
14 26
14 62
14 27
14 28
14 63
14 64
14 65
14 30
14 31
14 32
14 40
14 33
14 66
14 68
14 35
14 36
14 29
14 127
14 69
14 15
14 38
14 70
14 39
14 71
14 41
14 42
15 109
15 60
15 69
15 21
15 29
15 65
15 44
15 122
15 46
15 47
15 48
15 123
15 49
15 37
15 50
15 51
15 103
15 110
15 63
15 53
15 57
15 35
15 17
15 19
15 61
15 23
15 24
15 26
15 62
15 27
15 112
15 64
15 114
15 31
15 32
15 33
15 67
15 68
15 20
15 36
15 70
15 39
15 71
15 40
15 41
15 42
16 37
16 38
16 32
16 20
17 43
17 60
17 69
17 21
17 29
17 65
17 70
17 39
17 71
17 40
17 41
17 44
17 46
17 49
17 37
17 51
17 55
17 24
17 26
17 62
17 27
17 28
17 36
17 64
17 30
17 38
17 42
17 139
17 68
17 35
17 122
17 23
17 47
17 48
17 32
17 67
17 111
17 52
17 63
17 124
17 58
17 45
17 66
17 121
17 123
17 50
17 53
17 54
17 56
17 57
17 59
17 18
17 19
17 126
17 61
17 20
18 60
18 69
18 21
18 29
18 65
18 70
18 40
18 41
18 44
18 46
18 37
18 24
18 26
18 27
18 36
18 30
18 42
18 23
18 47
18 48
18 32
18 58
18 33
18 34
18 50
18 53
18 19
18 61
18 31
18 20
19 43
19 108
19 60
19 69
19 21
19 22
19 29
19 65
19 70
19 39
19 71
19 40
19 41
19 44
19 46
19 49
19 37
19 51
19 55
19 24
19 26
19 62
19 27
19 28
19 36
19 64
19 30
19 42
19 68
19 35
19 122
19 23
19 47
19 48
19 32
19 67
19 111
19 63
19 124
19 58
19 45
19 118
19 33
19 66
19 123
19 50
19 53
19 56
19 57
19 59
19 20
19 31
19 126
19 25
19 61
20 43
20 109
20 21
20 22
20 29
20 39
20 40
20 41
20 46
20 37
20 51
20 24
20 26
20 27
20 28
20 36
20 30
20 38
20 42
20 35
20 114
20 23
20 47
20 32
20 111
20 118
20 33
20 34
20 123
20 137
20 110
20 31
20 113
20 25
20 112
21 109
21 60
21 69
21 44
21 45
21 46
21 47
21 48
21 49
21 37
21 50
21 51
21 110
21 56
21 57
21 59
21 63
21 23
21 24
21 25
21 26
21 62
21 27
21 112
21 29
21 64
21 65
21 30
21 31
21 32
21 40
21 33
21 67
21 68
21 36
21 61
21 114
21 38
21 70
21 39
21 71
21 41
21 42
22 44
22 23
22 46
22 48
22 32
22 49
22 37
22 51
22 57
22 62
22 36
22 42
22 70
22 71
22 41
23 43
23 100
23 108
23 60
23 69
23 29
23 65
23 70
23 39
23 71
23 40
23 41
23 44
23 46
23 49
23 37
23 51
23 125
23 55
23 24
23 26
23 62
23 27
23 28
23 36
23 64
23 30
23 38
23 42
23 139
23 68
23 35
23 122
23 45
23 47
23 48
23 123
23 50
23 124
23 52
23 110
23 63
23 53
23 57
23 54
23 58
23 127
23 59
23 111
23 56
23 126
23 112
23 33
23 66
23 67
23 121
23 61
23 32
24 43
24 100
24 106
24 109
24 60
24 69
24 29
24 65
24 128
24 70
24 39
24 71
24 40
24 41
24 44
24 46
24 49
24 37
24 51
24 125
24 55
24 122
24 45
24 48
24 42
24 50
24 52
24 63
24 53
24 57
24 54
24 26
24 58
24 59
24 56
24 25
24 31
24 47
24 62
24 27
24 112
24 28
24 64
24 114
24 32
24 139
24 33
24 66
24 67
24 68
24 35
24 110
24 107
24 121
24 36
24 61
24 30
25 29
25 39
25 41
25 27
25 28
25 36
25 30
25 42
25 32
25 33
25 123
25 31
26 43
26 93
26 108
26 82
26 60
26 69
26 29
26 65
26 98
26 90
26 70
26 39
26 71
26 40
26 41
26 44
26 46
26 49
26 37
26 51
26 87
26 125
26 55
26 122
26 45
26 47
26 48
26 67
26 50
26 52
26 63
26 53
26 57
26 54
26 97
26 59
26 56
26 126
26 62
26 94
26 27
26 79
26 96
26 28
26 64
26 42
26 139
26 33
26 66
26 68
26 35
26 36
26 61
26 123
26 95
26 32
26 30
27 43
27 100
27 60
27 69
27 29
27 65
27 70
27 39
27 71
27 40
27 41
27 44
27 46
27 49
27 37
27 51
27 55
27 62
27 137
27 122
27 45
27 47
27 48
27 123
27 50
27 124
27 63
27 126
27 53
27 57
27 54
27 35
27 59
27 31
27 56
27 111
27 112
27 28
27 64
27 30
27 32
27 139
27 33
27 66
27 67
27 68
27 36
27 61
27 42
28 43
28 108
28 60
28 69
28 29
28 65
28 70
28 39
28 71
28 40
28 41
28 44
28 46
28 51
28 55
28 62
28 122
28 45
28 47
28 48
28 32
28 50
28 63
28 53
28 57
28 59
28 56
28 64
28 31
28 42
28 33
28 66
28 68
29 109
29 137
29 123
29 51
29 52
29 56
29 118
29 112
29 36
29 64
29 30
29 31
29 32
29 40
29 33
29 66
29 110
29 114
29 39
29 71
29 37
29 41
29 42
30 60
30 65
30 70
30 39
30 71
30 41
30 44
30 46
30 49
30 37
30 51
30 62
30 36
30 64
30 122
30 47
30 48
30 50
30 110
30 63
30 53
30 57
30 59
30 56
30 112
30 31
30 32
30 33
30 66
30 67
30 42
31 109
31 60
31 39
31 71
31 41
31 37
31 62
31 36
31 42
31 114
31 47
31 32
31 118
31 33
31 137
31 50
31 110
31 112
32 43
32 109
32 69
32 65
32 70
32 39
32 71
32 40
32 41
32 44
32 46
32 49
32 37
32 51
32 62
32 36
32 64
32 38
32 42
32 114
32 122
32 47
32 48
32 123
32 50
32 124
32 110
32 63
32 53
32 57
32 61
32 112
32 33
32 67
33 43
33 109
33 39
33 41
33 46
33 37
33 51
33 36
33 38
33 42
33 114
33 47
33 111
33 137
33 123
33 112
33 113
33 110
34 60
34 70
34 37
34 122
34 61
35 60
35 69
35 65
35 70
35 71
35 40
35 41
35 44
35 46
35 49
35 51
35 62
35 36
35 64
35 122
35 47
35 48
35 50
35 53
35 63
35 57
35 56
35 66
35 67
36 43
36 106
36 60
36 69
36 65
36 70
36 39
36 71
36 40
36 41
36 44
36 46
36 49
36 37
36 51
36 62
36 137
36 122
36 45
36 47
36 48
36 123
36 50
36 124
36 52
36 63
36 53
36 57
36 59
36 56
36 126
36 64
36 66
36 67
36 68
36 110
36 107
36 111
36 42
37 39
37 40
37 41
37 137
37 123
37 51
37 110
37 38
37 42
38 39
38 44
38 48
38 123
38 50
38 53
38 63
38 42
39 43
39 106
39 109
39 60
39 69
39 65
39 70
39 44
39 137
39 122
39 45
39 46
39 47
39 48
39 67
39 123
39 50
39 51
39 110
39 55
39 56
39 53
39 57
39 58
39 59
39 61
39 111
39 63
39 49
39 118
39 62
39 112
39 113
39 64
39 114
39 139
39 40
39 66
39 68
39 107
39 71
39 41
39 42
40 43
40 100
40 108
40 60
40 69
40 65
40 70
40 71
40 44
40 122
40 45
40 46
40 47
40 48
40 123
40 49
40 50
40 51
40 52
40 53
40 55
40 56
40 57
40 54
40 59
40 63
40 62
40 64
40 66
40 67
40 68
40 61
40 41
40 42
41 43
41 109
41 122
41 46
41 118
41 51
41 110
41 53
41 47
41 112
41 114
41 42
42 109
42 65
42 71
42 44
42 46
42 49
42 51
42 62
42 64
42 113
42 122
42 48
42 123
42 118
42 50
42 110
42 56
42 53
42 47
42 111
42 112
42 67
42 114
43 44
43 45
43 46
43 47
43 48
43 49
43 50
43 51
43 52
43 53
43 54
43 55
43 56
43 57
43 58
43 59
43 60
43 61
43 62
43 63
43 64
43 65
43 66
43 67
43 68
43 69
43 70
43 71
44 100
44 60
44 69
44 65
44 128
44 70
44 71
44 122
44 45
44 46
44 47
44 48
44 123
44 49
44 50
44 51
44 124
44 52
44 53
44 55
44 56
44 57
44 121
44 58
44 59
44 61
44 62
44 63
44 64
44 139
44 66
44 67
44 68
45 108
45 60
45 69
45 65
45 70
45 71
45 46
45 49
45 51
45 55
45 62
45 64
45 68
45 122
45 47
45 48
45 67
45 52
45 63
45 50
45 53
45 57
45 54
45 59
45 56
45 66
45 61
46 100
46 106
46 60
46 69
46 65
46 70
46 71
46 122
46 47
46 48
46 123
46 50
46 51
46 124
46 55
46 56
46 53
46 57
46 54
46 127
46 59
46 63
46 126
46 62
46 112
46 64
46 139
46 66
46 67
46 68
46 107
46 61
46 49
47 60
47 69
47 65
47 128
47 70
47 71
47 49
47 51
47 55
47 62
47 64
47 139
47 68
47 122
47 48
47 123
47 50
47 52
47 63
47 53
47 57
47 54
47 58
47 127
47 59
47 56
47 126
47 66
47 67
47 121
47 61
48 100
48 60
48 69
48 65
48 70
48 71
48 49
48 51
48 55
48 62
48 64
48 139
48 68
48 122
48 111
48 123
48 50
48 124
48 52
48 53
48 110
48 63
48 57
48 121
48 58
48 127
48 59
48 56
48 126
48 66
48 67
48 61
49 108
49 60
49 69
49 65
49 70
49 71
49 122
49 50
49 51
49 124
49 53
49 125
49 55
49 56
49 57
49 54
49 58
49 59
49 61
49 111
49 62
49 63
49 64
49 66
49 67
49 68
50 60
50 69
50 65
50 70
50 71
50 51
50 125
50 55
50 62
50 64
50 139
50 68
50 122
50 67
50 111
50 52
50 63
50 124
50 58
50 66
50 53
50 57
50 54
50 59
50 56
50 126
50 61
51 106
51 60
51 69
51 65
51 70
51 71
51 122
51 123
51 52
51 53
51 55
51 56
51 57
51 54
51 58
51 59
51 63
51 62
51 64
51 66
51 67
51 68
51 107
52 60
52 69
52 65
52 70
52 71
52 62
52 64
52 122
52 67
52 53
52 63
52 66
53 60
53 69
53 65
53 70
53 71
53 55
53 62
53 64
53 139
53 68
53 122
53 67
53 111
53 63
53 58
53 66
53 121
53 123
53 54
53 57
53 59
53 56
53 126
53 61
54 60
54 69
54 55
54 62
54 66
54 56
55 108
55 60
55 69
55 65
55 70
55 71
55 122
55 63
55 57
55 59
55 56
55 62
55 64
55 66
55 67
55 68
55 61
56 108
56 60
56 69
56 65
56 70
56 71
56 62
56 64
56 139
56 68
56 122
56 67
56 63
56 58
56 66
56 57
56 59
56 61
56 126
57 60
57 69
57 65
57 70
57 71
57 62
57 64
57 139
57 68
57 122
57 67
57 63
57 124
57 58
57 66
57 59
57 61
58 60
58 69
58 65
58 71
58 62
58 64
58 139
58 66
59 72
59 106
59 108
59 82
59 60
59 129
59 69
59 75
59 83
59 65
59 98
59 134
59 89
59 90
59 128
59 70
59 71
59 73
59 92
59 81
59 76
59 87
59 88
59 132
59 62
59 94
59 79
59 80
59 64
59 68
59 74
59 77
59 67
59 84
59 63
59 66
59 91
59 97
59 107
59 61
59 120
60 108
60 122
60 110
60 69
60 61
60 126
60 62
60 63
60 64
60 65
60 66
60 67
60 68
60 128
60 70
60 71
61 99
61 100
61 69
61 104
61 65
61 70
61 71
61 101
61 102
61 103
61 140
61 62
61 64
61 122
61 77
61 67
61 142
61 63
61 141
61 66
61 145
61 113
62 106
62 108
62 69
62 65
62 128
62 70
62 71
62 122
62 123
62 63
62 121
62 64
62 139
62 66
62 67
62 68
62 107
63 69
63 65
63 70
63 71
63 64
63 68
63 122
63 67
63 126
63 66
64 100
64 108
64 69
64 65
64 70
64 71
64 122
64 123
64 121
64 111
64 126
64 66
64 67
64 68
65 106
65 69
65 122
65 124
65 111
65 66
65 67
65 68
65 107
65 70
65 71
66 106
66 108
66 69
66 70
66 71
66 68
66 122
66 67
66 107
67 99
67 100
67 108
67 69
67 104
67 70
67 71
67 101
67 102
67 103
67 68
67 122
67 113
67 105
68 69
68 70
68 71
68 122
69 106
69 122
69 123
69 121
69 111
69 107
69 128
69 70
69 71
70 128
70 122
70 121
70 111
70 71
71 100
71 108
71 128
71 122
71 123
71 103
71 124
71 110
71 126
71 111
72 73
72 74
72 75
72 76
72 77
72 78
72 79
72 80
72 81
72 82
72 83
72 84
72 85
72 86
72 87
72 88
72 89
72 90
72 91
72 92
73 82
73 129
73 85
73 75
73 83
73 86
73 134
73 89
73 90
73 74
73 77
73 78
73 81
73 76
73 84
73 87
73 88
73 132
73 79
73 80
73 91
73 92
74 82
74 85
74 75
74 83
74 98
74 86
74 134
74 89
74 90
74 92
74 81
74 119
74 76
74 87
74 88
74 132
74 94
74 79
74 80
74 96
74 77
74 118
74 84
74 97
74 133
74 91
75 82
75 129
75 85
75 77
75 81
75 76
75 84
75 87
75 88
75 132
75 79
75 80
75 83
75 98
75 86
75 134
75 89
75 90
75 91
75 92
76 93
76 82
76 85
76 83
76 98
76 134
76 89
76 90
76 92
76 81
76 119
76 77
76 118
76 84
76 87
76 88
76 97
76 132
76 94
76 79
76 80
76 96
76 95
76 138
76 91
77 115
77 82
77 129
77 85
77 83
77 98
77 86
77 134
77 89
77 90
77 135
77 136
77 92
77 81
77 87
77 88
77 132
77 79
77 80
77 116
77 117
77 118
77 130
77 84
77 143
77 144
77 131
77 97
77 133
77 91
78 90
78 88
78 81
79 93
79 82
79 85
79 83
79 98
79 134
79 89
79 90
79 92
79 81
79 119
79 87
79 88
79 132
79 94
79 118
79 84
79 97
79 120
79 80
79 96
79 95
79 138
79 121
79 91
80 82
80 129
80 85
80 83
80 98
80 134
80 89
80 90
80 92
80 81
80 87
80 88
80 132
80 84
80 97
80 91
81 82
81 129
81 85
81 83
81 98
81 86
81 134
81 89
81 90
81 92
81 84
81 87
81 88
81 132
81 133
81 91
82 93
82 118
82 119
82 84
82 87
82 88
82 97
82 85
82 120
82 94
82 96
82 83
82 95
82 98
82 86
82 89
82 90
82 121
82 92
83 129
83 85
83 84
83 87
83 88
83 132
83 86
83 134
83 89
83 90
83 91
83 92
84 85
84 98
84 86
84 134
84 89
84 90
84 92
84 87
84 88
84 132
84 118
84 91
85 115
85 129
85 116
85 117
85 130
85 87
85 88
85 131
85 132
85 133
85 86
85 134
85 89
85 90
85 91
85 135
85 136
85 92
86 88
86 89
87 93
87 98
87 89
87 90
87 92
87 119
87 118
87 88
87 97
87 120
87 94
87 96
87 95
87 121
88 129
88 98
88 134
88 89
88 90
88 92
88 97
88 132
88 133
88 91
89 129
89 98
89 134
89 118
89 132
89 90
89 91
89 92
90 93
90 129
90 98
90 134
90 118
90 119
90 97
90 120
90 132
90 133
90 94
90 96
90 95
90 91
90 92
91 129
91 92
91 132
92 129
92 98
92 134
92 118
92 97
92 132
92 94
92 96
93 94
93 95
93 96
93 97
93 98
94 98
94 96
94 97
94 138
94 121
95 98
95 120
95 97
96 98
96 97
97 98
97 119
97 138
97 118
97 121
97 120
98 118
98 119
98 120
98 138
98 121
100 101
100 102
100 103
100 104
100 105
101 104
101 102
101 103
101 140
102 104
102 141
102 103
102 142
102 140
103 104
104 105
106 107
109 110
109 111
109 112
109 113
109 114
110 114
110 112
111 122
111 112
111 113
112 114
112 113
115 116
115 117
116 135
116 136
116 132
116 117
116 131
116 130
116 133
117 135
117 136
117 132
117 131
117 130
117 143
117 133
118 119
121 122
122 123
131 135
131 136
132 134
135 136
